c uprop, v00.0, 
c reading from data/prog358.c.cnf
c done reading: 0.003121
p cnf 197 981
-104 -125 0
-104 -121 0
104 121 125 0
-98 121 125 0
-98 -121 -125 0
98 121 -125 0
98 -121 125 0
104 -116 0
-114 -116 0
-104 114 116 0
-104 -109 114 0
104 -109 -114 0
104 109 114 0
-104 109 -114 0
-105 116 0
-102 -105 0
102 105 -116 0
-100 102 -116 0
-100 -102 116 0
100 102 116 0
100 -102 -116 0
-99 105 0
-96 -99 0
96 99 -105 0
96 -105 -123 0
-96 105 -123 0
96 105 123 0
-96 -105 123 0
99 -127 0
-118 -127 0
-99 118 127 0
-99 118 -128 0
99 -118 -128 0
99 118 128 0
-99 -118 128 0
127 -129 0
-111 -129 0
111 -127 129 0
111 -127 -130 0
-111 127 -130 0
111 127 130 0
-111 -127 130 0
129 -131 0
-107 -131 0
107 -129 131 0
107 -129 -132 0
-107 129 -132 0
107 129 132 0
-107 -129 132 0
121 -133 0
125 -133 0
-121 -125 133 0
-121 -125 -134 0
121 125 -134 0
-121 125 134 0
121 -125 134 0
-114 -121 135 0
-114 -133 135 0
-121 -133 135 0
114 121 -135 0
114 133 -135 0
121 133 -135 0
114 -135 -136 0
121 -135 -136 0
133 -135 -136 0
-114 135 136 0
-121 135 136 0
-133 135 136 0
-114 -121 -133 136 0
114 121 133 -136 0
-102 -114 137 0
-102 -135 137 0
-114 -135 137 0
102 114 -137 0
102 135 -137 0
114 135 -137 0
102 -137 -138 0
114 -137 -138 0
135 -137 -138 0
-102 137 138 0
-114 137 138 0
-135 137 138 0
-102 -114 -135 138 0
102 114 135 -138 0
-96 -102 139 0
-96 -137 139 0
-102 -137 139 0
96 102 -139 0
96 137 -139 0
102 137 -139 0
-94 96 -139 0
-94 102 -139 0
-94 137 -139 0
94 -96 139 0
94 -102 139 0
94 -137 139 0
94 -96 -102 -137 0
-94 96 102 137 0
93 -96 -118 0
93 -118 -139 0
93 -96 -139 0
-93 96 118 0
-93 118 139 0
-93 96 139 0
-92 -93 118 0
-92 -93 96 0
-92 -93 139 0
92 93 -118 0
92 93 -96 0
92 93 -139 0
92 -96 -118 -139 0
-92 96 118 139 0
91 -111 -118 0
91 -93 -111 0
91 -93 -118 0
-91 111 118 0
-91 93 111 0
-91 93 118 0
-90 -91 111 0
-90 -91 118 0
-90 -91 93 0
90 91 -111 0
90 91 -118 0
90 91 -93 0
90 -93 -111 -118 0
-90 93 111 118 0
89 -107 -111 0
89 -91 -107 0
89 -91 -111 0
-89 107 111 0
-89 91 107 0
-89 91 111 0
-89 107 -124 0
-89 111 -124 0
-89 91 -124 0
89 -107 124 0
89 -111 124 0
89 -91 124 0
-91 -107 -111 124 0
91 107 111 -124 0
107 -120 0
89 -120 0
-89 -107 120 0
-89 -107 -113 0
89 107 -113 0
89 -107 113 0
-89 107 113 0
-101 -125 0
-101 -134 0
101 125 134 0
-95 125 134 0
-95 -125 -134 0
95 -125 134 0
95 125 -134 0
101 -117 0
-117 -136 0
-101 117 136 0
-101 -110 136 0
101 -110 -136 0
101 110 136 0
-101 110 -136 0
-106 117 0
-106 -138 0
106 -117 138 0
-88 -117 138 0
-88 117 -138 0
88 117 138 0
88 -117 -138 0
-85 106 0
-85 -94 0
85 94 -106 0
-82 94 -106 0
-82 -94 106 0
82 94 106 0
82 -94 -106 0
-81 85 0
-81 -92 0
81 -85 92 0
-80 -85 92 0
-80 85 -92 0
80 85 92 0
80 -85 -92 0
-79 81 0
-79 -90 0
79 -81 90 0
-78 -81 90 0
-78 81 -90 0
78 81 90 0
78 -81 -90 0
-77 79 0
-77 -124 0
77 -79 124 0
-76 -79 124 0
-76 79 -124 0
76 79 124 0
76 -79 -124 0
-75 77 0
-75 -113 0
75 -77 113 0
-74 -77 113 0
-74 77 -113 0
74 77 113 0
74 -77 -113 0
-73 75 0
-73 -120 0
73 -75 120 0
-72 -75 120 0
-72 75 -120 0
72 75 120 0
72 -75 -120 0
-71 -86 0
-71 -83 0
71 83 86 0
83 86 -140 0
-83 -86 -140 0
83 -86 140 0
-83 86 140 0
71 -141 0
-141 -142 0
-71 141 142 0
-71 142 -144 0
71 -142 -144 0
71 142 144 0
-71 -142 144 0
141 -145 0
-145 -146 0
-141 145 146 0
-141 146 -148 0
141 -146 -148 0
141 146 148 0
-141 -146 148 0
145 -149 0
-149 -150 0
-145 149 150 0
-145 150 -152 0
145 -150 -152 0
145 150 152 0
-145 -150 152 0
149 -153 0
-153 -154 0
-149 153 154 0
-149 154 -156 0
149 -154 -156 0
149 154 156 0
-149 -154 156 0
153 -157 0
-157 -158 0
-153 157 158 0
-153 158 -160 0
153 -158 -160 0
153 158 160 0
-153 -158 160 0
157 -161 0
-161 -162 0
-157 161 162 0
-157 162 -164 0
157 -162 -164 0
157 162 164 0
-157 -162 164 0
83 -165 0
86 -165 0
-83 -86 165 0
-83 -86 -166 0
83 86 -166 0
-83 86 166 0
83 -86 166 0
-83 -142 167 0
-142 -165 167 0
-83 -165 167 0
83 142 -167 0
142 165 -167 0
83 165 -167 0
142 -167 -168 0
83 -167 -168 0
165 -167 -168 0
-142 167 168 0
-83 167 168 0
-165 167 168 0
-83 -142 -165 168 0
83 142 165 -168 0
-142 -146 169 0
-146 -167 169 0
-142 -167 169 0
142 146 -169 0
146 167 -169 0
142 167 -169 0
146 -169 -170 0
142 -169 -170 0
167 -169 -170 0
-146 169 170 0
-142 169 170 0
-167 169 170 0
-142 -146 -167 170 0
142 146 167 -170 0
-146 -150 171 0
-150 -169 171 0
-146 -169 171 0
146 150 -171 0
150 169 -171 0
146 169 -171 0
150 -171 -172 0
146 -171 -172 0
169 -171 -172 0
-150 171 172 0
-146 171 172 0
-169 171 172 0
-146 -150 -169 172 0
146 150 169 -172 0
-150 -154 173 0
-154 -171 173 0
-150 -171 173 0
150 154 -173 0
154 171 -173 0
150 171 -173 0
154 -173 -174 0
150 -173 -174 0
171 -173 -174 0
-154 173 174 0
-150 173 174 0
-171 173 174 0
-150 -154 -171 174 0
150 154 171 -174 0
-154 -158 175 0
-158 -173 175 0
-154 -173 175 0
154 158 -175 0
158 173 -175 0
154 173 -175 0
158 -175 -176 0
154 -175 -176 0
173 -175 -176 0
-158 175 176 0
-154 175 176 0
-173 175 176 0
-154 -158 -173 176 0
154 158 173 -176 0
-158 -162 177 0
-162 -175 177 0
-158 -175 177 0
158 162 -177 0
162 175 -177 0
158 175 -177 0
162 -177 -178 0
158 -177 -178 0
175 -177 -178 0
-162 177 178 0
-158 177 178 0
-175 177 178 0
-158 -162 -175 178 0
158 162 175 -178 0
162 -179 0
177 -179 0
-162 -177 179 0
-162 -177 -180 0
162 177 -180 0
-162 177 180 0
162 -177 180 0
168 -181 0
86 -181 0
-86 -168 181 0
-86 -168 -182 0
86 168 -182 0
86 -168 182 0
-86 168 182 0
-83 -170 183 0
-170 -181 183 0
-83 -181 183 0
83 170 -183 0
170 181 -183 0
83 181 -183 0
170 -183 -184 0
83 -183 -184 0
181 -183 -184 0
-170 183 184 0
-83 183 184 0
-181 183 184 0
-83 -170 -181 184 0
83 170 181 -184 0
-142 -172 185 0
-172 -183 185 0
-142 -183 185 0
142 172 -185 0
172 183 -185 0
142 183 -185 0
172 -185 -186 0
142 -185 -186 0
183 -185 -186 0
-172 185 186 0
-142 185 186 0
-183 185 186 0
-142 -172 -183 186 0
142 172 183 -186 0
-146 -174 187 0
-174 -185 187 0
-146 -185 187 0
146 174 -187 0
174 185 -187 0
146 185 -187 0
174 -187 -188 0
146 -187 -188 0
185 -187 -188 0
-174 187 188 0
-146 187 188 0
-185 187 188 0
-146 -174 -185 188 0
146 174 185 -188 0
-150 -176 189 0
-176 -187 189 0
-150 -187 189 0
150 176 -189 0
176 187 -189 0
150 187 -189 0
176 -189 -190 0
150 -189 -190 0
187 -189 -190 0
-176 189 190 0
-150 189 190 0
-187 189 190 0
-150 -176 -187 190 0
150 176 187 -190 0
-154 -178 191 0
-178 -189 191 0
-154 -189 191 0
154 178 -191 0
178 189 -191 0
154 189 -191 0
178 -191 -192 0
154 -191 -192 0
189 -191 -192 0
-178 191 192 0
-154 191 192 0
-189 191 192 0
-154 -178 -189 192 0
154 178 189 -192 0
-158 -180 193 0
-180 -191 193 0
-158 -191 193 0
158 180 -193 0
180 191 -193 0
158 191 -193 0
180 -193 -194 0
158 -193 -194 0
191 -193 -194 0
-180 193 194 0
-158 193 194 0
-191 193 194 0
-158 -180 -191 194 0
158 180 191 -194 0
-162 -179 195 0
-179 -193 195 0
-162 -193 195 0
162 179 -195 0
179 193 -195 0
162 193 -195 0
179 -195 -196 0
162 -195 -196 0
193 -195 -196 0
-179 195 196 0
-162 195 196 0
-193 195 196 0
-162 -179 -193 196 0
162 179 193 -196 0
184 -197 0
86 -197 0
-86 -184 197 0
-86 -126 -184 0
86 -126 184 0
86 126 -184 0
-86 126 184 0
-83 122 -186 0
122 -186 -197 0
-83 122 -197 0
83 -122 186 0
-122 186 197 0
83 -122 197 0
-115 -122 186 0
83 -115 -122 0
-115 -122 197 0
115 122 -186 0
-83 115 122 0
115 122 -197 0
-83 115 -186 -197 0
83 -115 186 197 0
103 -142 -188 0
103 -122 -188 0
103 -122 -142 0
-103 142 188 0
-103 122 188 0
-103 122 142 0
-97 -103 188 0
-97 -103 142 0
-97 -103 122 0
97 103 -188 0
97 103 -142 0
97 103 -122 0
97 -122 -142 -188 0
-97 122 142 188 0
119 -146 -190 0
-103 119 -190 0
-103 119 -146 0
-119 146 190 0
103 -119 190 0
103 -119 146 0
-112 -119 190 0
-112 -119 146 0
103 -112 -119 0
112 119 -190 0
112 119 -146 0
-103 112 119 0
-103 112 -146 -190 0
103 -112 146 190 0
108 -150 -192 0
108 -119 -192 0
108 -119 -150 0
-108 150 192 0
-108 119 192 0
-108 119 150 0
-87 -108 192 0
-87 -108 150 0
-87 -108 119 0
87 108 -192 0
87 108 -150 0
87 108 -119 0
87 -119 -150 -192 0
-87 119 150 192 0
84 -154 -194 0
84 -108 -194 0
84 -108 -154 0
-84 154 194 0
-84 108 194 0
-84 108 154 0
-84 -143 194 0
-84 -143 154 0
-84 108 -143 0
84 143 -194 0
84 143 -154 0
84 -108 143 0
-108 143 -154 -194 0
108 -143 154 194 0
147 -158 -196 0
-84 147 -196 0
-84 147 -158 0
-147 158 196 0
84 -147 196 0
84 -147 158 0
-147 -151 196 0
-147 -151 158 0
84 -147 -151 0
147 151 -196 0
147 151 -158 0
-84 147 151 0
-84 151 -158 -196 0
84 -151 158 196 0
155 -162 -195 0
-147 155 -195 0
-147 155 -162 0
-155 162 195 0
147 -155 195 0
147 -155 162 0
-155 -159 195 0
-155 -159 162 0
147 -155 -159 0
155 159 -195 0
155 159 -162 0
-147 155 159 0
-147 159 -162 -195 0
147 -159 162 195 0
115 -163 0
86 -163 0
-86 -115 163 0
-70 -86 -115 0
-70 86 115 0
70 86 -115 0
70 -86 115 0
69 -83 -97 0
69 -97 -163 0
69 -83 -163 0
-69 83 97 0
-69 97 163 0
-69 83 163 0
-68 -69 97 0
-68 -69 83 0
-68 -69 163 0
68 69 -97 0
68 69 -83 0
68 69 -163 0
68 -83 -97 -163 0
-68 83 97 163 0
67 -112 -142 0
67 -69 -112 0
67 -69 -142 0
-67 112 142 0
-67 69 112 0
-67 69 142 0
-66 -67 112 0
-66 -67 142 0
-66 -67 69 0
66 67 -112 0
66 67 -142 0
66 67 -69 0
66 -69 -112 -142 0
-66 69 112 142 0
65 -87 -146 0
65 -67 -87 0
65 -67 -146 0
-65 87 146 0
-65 67 87 0
-65 67 146 0
-64 -65 87 0
-64 -65 146 0
-64 -65 67 0
64 65 -87 0
64 65 -146 0
64 65 -67 0
64 -67 -87 -146 0
-64 67 87 146 0
63 -143 -150 0
63 -65 -143 0
63 -65 -150 0
-63 143 150 0
-63 65 143 0
-63 65 150 0
-62 -63 143 0
-62 -63 150 0
-62 -63 65 0
62 63 -143 0
62 63 -150 0
62 63 -65 0
62 -65 -143 -150 0
-62 65 143 150 0
61 -151 -154 0
61 -63 -151 0
61 -63 -154 0
-61 151 154 0
-61 63 151 0
-61 63 154 0
-60 -61 151 0
-60 -61 154 0
-60 -61 63 0
60 61 -151 0
60 61 -154 0
60 61 -63 0
60 -63 -151 -154 0
-60 63 151 154 0
59 -158 -159 0
59 -61 -159 0
59 -61 -158 0
-59 158 159 0
-59 61 159 0
-59 61 158 0
-58 -59 159 0
-58 -59 158 0
-58 -59 61 0
58 59 -159 0
58 59 -158 0
58 59 -61 0
58 -61 -158 -159 0
-58 61 158 159 0
57 -155 -162 0
57 -59 -155 0
57 -59 -162 0
-57 155 162 0
-57 59 155 0
-57 59 162 0
-56 -57 155 0
-56 -57 162 0
-56 -57 59 0
56 57 -155 0
56 57 -162 0
56 57 -59 0
56 -59 -155 -162 0
-56 59 155 162 0
-55 68 0
-55 86 0
55 -68 -86 0
-54 -68 -86 0
-54 68 86 0
54 -68 86 0
54 68 -86 0
53 -66 -83 0
53 -55 -66 0
53 -55 -83 0
-53 66 83 0
-53 55 66 0
-53 55 83 0
-52 -53 66 0
-52 -53 83 0
-52 -53 55 0
52 53 -66 0
52 53 -83 0
52 53 -55 0
52 -55 -66 -83 0
-52 55 66 83 0
51 -64 -142 0
51 -53 -64 0
51 -53 -142 0
-51 64 142 0
-51 53 64 0
-51 53 142 0
-50 -51 64 0
-50 -51 142 0
-50 -51 53 0
50 51 -64 0
50 51 -142 0
50 51 -53 0
50 -53 -64 -142 0
-50 53 64 142 0
49 -62 -146 0
49 -51 -62 0
49 -51 -146 0
-49 62 146 0
-49 51 62 0
-49 51 146 0
-48 -49 62 0
-48 -49 146 0
-48 -49 51 0
48 49 -62 0
48 49 -146 0
48 49 -51 0
48 -51 -62 -146 0
-48 51 62 146 0
47 -60 -150 0
47 -49 -60 0
47 -49 -150 0
-47 60 150 0
-47 49 60 0
-47 49 150 0
-46 -47 60 0
-46 -47 150 0
-46 -47 49 0
46 47 -60 0
46 47 -150 0
46 47 -49 0
46 -49 -60 -150 0
-46 49 60 150 0
45 -58 -154 0
45 -47 -58 0
45 -47 -154 0
-45 58 154 0
-45 47 58 0
-45 47 154 0
-44 -45 58 0
-44 -45 154 0
-44 -45 47 0
44 45 -58 0
44 45 -154 0
44 45 -47 0
44 -47 -58 -154 0
-44 47 58 154 0
43 -56 -158 0
43 -45 -56 0
43 -45 -158 0
-43 56 158 0
-43 45 56 0
-43 45 158 0
-42 -43 56 0
-42 -43 158 0
-42 -43 45 0
42 43 -56 0
42 43 -158 0
42 43 -45 0
42 -45 -56 -158 0
-42 45 56 158 0
41 -57 -162 0
41 -43 -57 0
41 -43 -162 0
-41 57 162 0
-41 43 57 0
-41 43 162 0
-40 -41 57 0
-40 -41 162 0
-40 -41 43 0
40 41 -57 0
40 41 -162 0
40 41 -43 0
40 -43 -57 -162 0
-40 43 57 162 0
-39 -86 0
-39 -166 0
39 86 166 0
-38 86 166 0
-38 -86 -166 0
38 -86 166 0
38 86 -166 0
-37 39 0
-37 -182 0
37 -39 182 0
-36 -39 182 0
-36 39 -182 0
36 39 182 0
36 -39 -182 0
-35 37 0
-35 -126 0
35 -37 126 0
-34 -37 126 0
-34 37 -126 0
34 37 126 0
34 -37 -126 0
-33 35 0
-33 -70 0
33 -35 70 0
-32 -35 70 0
-32 35 -70 0
32 35 70 0
32 -35 -70 0
-31 33 0
-31 -54 0
31 -33 54 0
-30 -33 54 0
-30 33 -54 0
30 33 54 0
30 -33 -54 0
-29 31 0
-29 -52 0
29 -31 52 0
-28 -31 52 0
-28 31 -52 0
28 31 52 0
28 -31 -52 0
-27 29 0
-27 -50 0
27 -29 50 0
-26 -29 50 0
-26 29 -50 0
26 29 50 0
26 -29 -50 0
-25 27 0
-25 -48 0
25 -27 48 0
-24 -27 48 0
-24 27 -48 0
24 27 48 0
24 -27 -48 0
-23 25 0
-23 -46 0
23 -25 46 0
-22 -25 46 0
-22 25 -46 0
22 25 46 0
22 -25 -46 0
-21 23 0
-21 -44 0
21 -23 44 0
-20 -23 44 0
-20 23 -44 0
20 23 44 0
20 -23 -44 0
-19 21 0
-19 -42 0
19 -21 42 0
-18 -21 42 0
-18 21 -42 0
18 21 42 0
18 -21 -42 0
-17 19 0
-17 -40 0
17 -19 40 0
-16 -19 40 0
-16 19 -40 0
16 19 40 0
16 -19 -40 0
-15 17 0
-15 -41 0
15 -17 41 0
-14 -17 41 0
-14 17 -41 0
14 17 41 0
14 -17 -41 0
-13 125 0
-13 86 0
13 -86 -125 0
-86 -125 0
86 125 0
12 -134 -166 0
12 -13 -134 0
12 -13 -166 0
-12 134 166 0
-12 13 134 0
-12 13 166 0
-12 134 0
-12 166 0
-12 13 0
13 134 166 0
11 -136 -182 0
11 -12 -136 0
11 -12 -182 0
-11 136 182 0
-11 12 136 0
-11 12 182 0
-11 136 0
-11 182 0
-11 12 0
12 136 182 0
10 -126 -138 0
10 -11 -138 0
10 -11 -126 0
-10 126 138 0
-10 11 138 0
-10 11 126 0
10 -138 0
10 -126 0
10 -11 0
-11 -126 -138 0
9 -70 -94 0
9 -10 -94 0
9 -10 -70 0
-9 70 94 0
-9 10 94 0
-9 10 70 0
-9 94 0
-9 70 0
-9 10 0
10 70 94 0
8 -54 -92 0
8 -9 -92 0
8 -9 -54 0
-8 54 92 0
-8 9 92 0
-8 9 54 0
8 -92 0
8 -54 0
8 -9 0
-9 -54 -92 0
7 -52 -90 0
7 -8 -90 0
7 -8 -52 0
-7 52 90 0
-7 8 90 0
-7 8 52 0
7 -90 0
7 -52 0
7 -8 0
-8 -52 -90 0
6 -50 -124 0
6 -7 -124 0
6 -7 -50 0
-6 50 124 0
-6 7 124 0
-6 7 50 0
-6 124 0
-6 50 0
-6 7 0
7 50 124 0
5 -48 -113 0
5 -6 -113 0
5 -6 -48 0
-5 48 113 0
-5 6 113 0
-5 6 48 0
5 -113 0
5 -48 0
5 -6 0
-6 -48 -113 0
4 -46 -120 0
4 -5 -120 0
4 -5 -46 0
-4 46 120 0
-4 5 120 0
-4 5 46 0
4 -120 0
4 -46 0
4 -5 0
-5 -46 -120 0
-3 44 0
-3 4 0
3 -4 -44 0
4 -44 0
-4 44 0
-2 42 0
-2 3 0
2 -3 -42 0
3 -42 0
-3 42 0
-1 40 0
-1 2 0
1 -2 -40 0
2 -40 0
-2 40 0
-1 -41 0
1 -41 0
-1 41 0
